Problem:    
Rows:       256
Columns:    89 (72 integer, 72 binary)
Non-zeros:  960
Status:     INTEGER OPTIMAL
Objective:  value = 192.952703 (MINimum)

   No.   Row name        Activity     Lower bound   Upper bound
------ ------------    ------------- ------------- -------------
     1 r.5                   192.953             0               
     2 r.6                   81.2009      -976.296               
     3 r.7                   1192.95             0               
     4 r.8                  -918.799       -959.87               
     5 r.9                   1192.95             0               
     6 r.10                 -894.165      -974.525               
     7 r.11                  192.953             0               
     8 r.12                  105.835      -955.059               
     9 r.13                  1192.95             0               
    10 r.14                  -919.64      -963.886               
    11 r.15                  192.953             0               
    12 r.16                  105.835      -932.855               
    13 r.17                  192.953             0               
    14 r.18                 -976.658      -979.964               
    15 r.19                  1192.95             0               
    16 r.20                 -961.379      -964.685               
    17 r.21                  1192.95             0               
    18 r.22                 -957.344      -971.535               
    19 r.23                  192.953             0               
    20 r.24                  82.9096      -951.838               
    21 r.25                  1192.95             0               
    22 r.26                 -997.917      -997.917               
    23 r.27                  192.953             0               
    24 r.28                 -967.575      -967.575               
    25 r.29                  192.953             0               
    26 r.30                  192.953      -912.929               
    27 r.31                  1192.95             0               
    28 r.32                 -807.047      -888.248               
    29 r.33                  1192.95             0               
    30 r.34                 -807.047      -912.882               
    31 r.35                  192.953             0               
    32 r.36                  192.953      -887.902               
    33 r.37                        1             1             = 
    34 r.38                        1             1             = 
    35 r.39                        1             1             = 
    36 r.40                        1             1             = 
    37 r.41                        1             1             = 
    38 r.42                        1             1             = 
    39 r.43                        1             1             = 
    40 r.44                        1             1             = 
    41 r.45                     1001             2               
    42 r.46                    -1001         -1001               
    43 r.47                  2024.63      -974.525               
    44 r.48                     1001             2               
    45 r.49                    -1001         -1001               
    46 r.50                  2024.63      -955.059               
    47 r.51                     1001             2               
    48 r.52                    -1001         -1001               
    49 r.53                  1999.16      -963.886               
    50 r.54                     1001             2               
    51 r.55                    -1001         -1001               
    52 r.56                  2024.63      -932.855               
    53 r.57                     1000             2               
    54 r.58                    -1000         -1001               
    55 r.59                  942.141      -979.964               
    56 r.60                        2             2               
    57 r.61                       -2         -1001               
    58 r.62                 -42.5796      -964.685               
    59 r.63                     1001             2               
    60 r.64                    -1001         -1001               
    61 r.65                  1961.45      -971.535               
    62 r.66                     1001             2               
    63 r.67                    -1001         -1001               
    64 r.68                  2001.71      -951.838               
    65 r.69                   77.895      -976.296               
    66 r.70                 -922.105       -959.87               
    67 r.71                  1050.26      -976.296               
    68 r.72                  50.2582       -959.87               
    69 r.73                  111.752      -912.929               
    70 r.74                 -888.248      -888.248               
    71 r.75                  111.752      -912.929               
    72 r.76                 -888.248      -888.248               
    73 r.77                     1001             2               
    74 r.78                    -1001         -1001               
    75 r.79                  2111.75      -912.882               
    76 r.80                     1001             2               
    77 r.81                    -1001         -1001               
    78 r.82                  2111.75      -887.902               
    79 r.83                     1001             2               
    80 r.84                    -1001         -1001               
    81 r.85                  1975.37       23.7038               
    82 r.86                     1001             2               
    83 r.87                    -1001         -1001               
    84 r.88                  1975.37       40.1299               
    85 r.89                        2             2               
    86 r.90                       -2         -1001               
    87 r.91                 -25.4748      -963.886               
    88 r.92                     1000             2               
    89 r.93                    -1000         -1001               
    90 r.94                     2000      -932.855               
    91 r.95                     1001             2               
    92 r.96                    -1001         -1001               
    93 r.97                  917.507      -979.964               
    94 r.98                     1001             2               
    95 r.99                    -1001         -1001               
    96 r.100                 1932.79      -964.685               
    97 r.101                       2             2               
    98 r.102                      -2         -1001               
    99 r.103                -63.1792      -971.535               
   100 r.104                    1000             2               
   101 r.105                   -1000         -1001               
   102 r.106                 1977.07      -951.838               
   103 r.107                -897.471      -974.525               
   104 r.108                 102.529      -955.059               
   105 r.109                 74.8924      -974.525               
   106 r.110                 1074.89      -955.059               
   107 r.111                    1001             2               
   108 r.112                   -1001         -1001               
   109 r.113                 2087.12      -912.929               
   110 r.114                    1001             2               
   111 r.115                   -1001         -1001               
   112 r.116                 2087.12      -888.248               
   113 r.117                -912.882      -912.882               
   114 r.118                 87.1176      -887.902               
   115 r.119                -912.882      -912.882               
   116 r.120                 87.1176      -887.902               
   117 r.121                    1001             2               
   118 r.122                   -1001         -1001               
   119 r.123                 2000.84       23.7038               
   120 r.124                    1001             2               
   121 r.125                   -1001         -1001               
   122 r.126                 1975.37       40.1299               
   123 r.127                       2             2               
   124 r.128                      -2         -1001               
   125 r.129                 25.4748       25.4748               
   126 r.130                    1000             2               
   127 r.131                   -1000         -1001               
   128 r.132                    2000       44.9408               
   129 r.133                 59.2196      -963.886               
   130 r.134                 1084.69      -932.855               
   131 r.135                -960.711      -963.886               
   132 r.136                 64.7641      -932.855               
   133 r.137                       2             2               
   134 r.138                      -2         -1001               
   135 r.139                -37.7044      -971.535               
   136 r.140                    1000             2               
   137 r.141                   -1000         -1001               
   138 r.142                 1977.07      -951.838               
   139 r.143                -922.946      -963.886               
   140 r.144                 102.529      -932.855               
   141 r.145                 49.4176      -963.886               
   142 r.146                 1074.89      -932.855               
   143 r.147                    1001             2               
   144 r.148                   -1001         -1001               
   145 r.149                 2112.59      -912.929               
   146 r.150                    1001             2               
   147 r.151                   -1001         -1001               
   148 r.152                 2087.12      -888.248               
   149 r.153                -887.408      -912.882               
   150 r.154                 112.592      -887.902               
   151 r.155                -912.882      -912.882               
   152 r.156                 87.1176      -887.902               
   153 r.157                    1000             2               
   154 r.158                   -1000         -1001               
   155 r.159                 3060.06       23.7038               
   156 r.160                       2             2               
   157 r.161                      -2         -1001               
   158 r.162                 40.1299       40.1299               
   159 r.163                    1001             2               
   160 r.164                   -1001         -1001               
   161 r.165                 3084.69       25.4748               
   162 r.166                    1001             2               
   163 r.167                   -1001         -1001               
   164 r.168                 2064.76       44.9408               
   165 r.169                    1001             2               
   166 r.170                   -1001         -1001               
   167 r.171                 3021.52      -971.535               
   168 r.172                    1001             2               
   169 r.173                   -1001         -1001               
   170 r.174                 2041.84      -951.838               
   171 r.175                -979.964      -979.964               
   172 r.176                -964.685      -964.685               
   173 r.177                -7.60076      -979.964               
   174 r.178                 7.67864      -964.685               
   175 r.179                    1000             2               
   176 r.180                   -1000         -1001               
   177 r.181                 3171.81      -912.929               
   178 r.182                       2             2               
   179 r.183                      -2         -1001               
   180 r.184                -848.118      -888.248               
   181 r.185                 171.812      -912.882               
   182 r.186                 1171.81      -887.902               
   183 r.187                -848.118      -912.882               
   184 r.188                 151.882      -887.902               
   185 r.189                    1001             2               
   186 r.190                   -1001         -1001               
   187 r.191                 2036.95       23.7038               
   188 r.192                    1001             2               
   189 r.193                   -1001         -1001               
   190 r.194                    2000       40.1299               
   191 r.195                       2             2               
   192 r.196                      -2         -1001               
   193 r.197                 61.5892       25.4748               
   194 r.198                    1000             2               
   195 r.199                   -1000         -1001               
   196 r.200                 2024.63       44.9408               
   197 r.201                       2             2               
   198 r.202                      -2         -1001               
   199 r.203                 36.1144       36.1144               
   200 r.204                    1000             2               
   201 r.205                   -1000         -1001               
   202 r.206                 2024.63       67.1446               
   203 r.207                    1001             2               
   204 r.208                   -1001         -1001               
   205 r.209                 979.096        20.036               
   206 r.210                    1001             2               
   207 r.211                   -1001         -1001               
   208 r.212                 1957.42       35.3154               
   209 r.213                 -960.65      -971.535               
   210 r.214                 79.6037      -951.838               
   211 r.215                 11.7132      -971.535               
   212 r.216                 1051.97      -951.838               
   213 r.217                 148.707      -912.929               
   214 r.218                -851.293      -888.248               
   215 r.219                 111.752      -912.929               
   216 r.220                -888.248      -888.248               
   217 r.221                -851.293      -912.882               
   218 r.222                 148.707      -887.902               
   219 r.223                -888.248      -912.882               
   220 r.224                 111.752      -887.902               
   221 r.225                    1001             2               
   222 r.226                   -1001         -1001               
   223 r.227                 1912.88       25.4748               
   224 r.228                    1001             2               
   225 r.229                   -1001         -1001               
   226 r.230                 1912.88       44.9408               
   227 r.231                    1001             2               
   228 r.232                   -1001         -1001               
   229 r.233                 1887.41       36.1144               
   230 r.234                    1001             2               
   231 r.235                   -1001         -1001               
   232 r.236                 1912.88       67.1446               
   233 r.237                    1000             2               
   234 r.238                   -1000         -1001               
   235 r.239                 830.389        20.036               
   236 r.240                       2             2               
   237 r.241                      -2         -1001               
   238 r.242                 845.669       35.3154               
   239 r.243                    1001             2               
   240 r.244                   -1001         -1001               
   241 r.245                    2000      -912.882               
   242 r.246                    1001             2               
   243 r.247                   -1001         -1001               
   244 r.248                    2000      -887.902               
   245 r.249                    1001             2               
   246 r.250                   -1001         -1001               
   247 r.251                 1888.25       23.7038               
   248 r.252                    1001             2               
   249 r.253                   -1001         -1001               
   250 r.254                 1888.25       40.1299               
   251 r.255                    1001             2               
   252 r.256                   -1001         -1001               
   253 r.257                    2000       87.0706               
   254 r.258                    1001             2               
   255 r.259                   -1001         -1001               
   256 r.260                    2000       111.752               

   No. Column name       Activity     Lower bound   Upper bound
------ ------------    ------------- ------------- -------------
     1 tt                    192.953             0               
     2 s_1_1        *              0             0             1 
     3 t_1_1                 111.752             0               
     4 s_1_7        *              0             0             1 
     5 s_2_1        *              1             0             1 
     6 t_2_1                 111.752             0               
     7 s_2_7        *              1             0             1 
     8 s_1_2        *              1             0             1 
     9 t_1_2                 87.1176             0               
    10 s_1_8        *              1             0             1 
    11 s_2_2        *              0             0             1 
    12 t_2_2                 87.1176             0               
    13 s_2_8        *              0             0             1 
    14 s_1_3        *              1             0             1 
    15 t_1_3                 112.592             0               
    16 s_2_3        *              0             0             1 
    17 t_2_3                 87.1176             0               
    18 s_1_4        *              0             0             1 
    19 t_1_4                 1171.81             0               
    20 s_2_4        *              1             0             1 
    21 t_2_4                 151.882             0               
    22 s_1_5        *              1             0             1 
    23 t_1_5                 148.707             0               
    24 s_2_5        *              0             0             1 
    25 t_2_5                 111.752             0               
    26 s_1_6        *              1             0             1 
    27 t_1_6                 189.647             0               
    28 s_2_6        *              0             0             1 
    29 t_2_6                 1162.01             0               
    30 t_1_7                       0             0               
    31 t_2_7                       0             0               
    32 t_1_8                       0             0               
    33 t_2_8                       0             0               
    34 r_1_1_2      *              1             0             1 
    35 u_1_1_2      *              0             0             1 
    36 r_2_1_2      *              1             0             1 
    37 u_2_1_2      *              0             0             1 
    38 r_1_1_3      *              1             0             1 
    39 u_1_1_3      *              0             0             1 
    40 r_2_1_3      *              1             0             1 
    41 u_2_1_3      *              0             0             1 
    42 r_1_1_4      *              1             0             1 
    43 u_1_1_4      *              0             0             1 
    44 r_2_1_4      *              0             0             1 
    45 u_2_1_4      *              0             0             1 
    46 r_1_1_5      *              1             0             1 
    47 u_1_1_5      *              0             0             1 
    48 r_2_1_5      *              1             0             1 
    49 u_2_1_5      *              0             0             1 
    50 r_1_1_8      *              1             0             1 
    51 u_1_1_8      *              0             0             1 
    52 r_2_1_8      *              1             0             1 
    53 u_2_1_8      *              0             0             1 
    54 r_1_2_3      *              0             0             1 
    55 u_1_2_3      *              0             0             1 
    56 r_2_2_3      *              1             0             1 
    57 u_2_2_3      *              0             0             1 
    58 r_1_2_4      *              1             0             1 
    59 u_1_2_4      *              0             0             1 
    60 r_2_2_4      *              1             0             1 
    61 u_2_2_4      *              0             0             1 
    62 r_1_2_5      *              0             0             1 
    63 u_1_2_5      *              0             0             1 
    64 r_2_2_5      *              1             0             1 
    65 u_2_2_5      *              0             0             1 
    66 r_1_2_7      *              1             0             1 
    67 u_1_2_7      *              0             0             1 
    68 r_2_2_7      *              1             0             1 
    69 u_2_2_7      *              0             0             1 
    70 r_1_3_5      *              0             0             1 
    71 u_1_3_5      *              0             0             1 
    72 r_2_3_5      *              1             0             1 
    73 u_2_3_5      *              0             0             1 
    74 r_1_3_7      *              1             0             1 
    75 u_1_3_7      *              0             0             1 
    76 r_2_3_7      *              1             0             1 
    77 u_2_3_7      *              0             0             1 
    78 r_1_4_5      *              1             0             1 
    79 u_1_4_5      *              0             0             1 
    80 r_2_4_5      *              1             0             1 
    81 u_2_4_5      *              0             0             1 
    82 r_1_4_7      *              1             0             1 
    83 u_1_4_7      *              0             0             1 
    84 r_2_4_7      *              0             0             1 
    85 u_2_4_7      *              1             0             1 
    86 r_1_7_8      *              1             0             1 
    87 u_1_7_8      *              0             0             1 
    88 r_2_7_8      *              1             0             1 
    89 u_2_7_8      *              0             0             1 

Integer feasibility conditions:

KKT.PE: max.abs.err = 4.55e-13 on row 55
        max.rel.err = 1.09e-16 on row 84
        High quality

KKT.PB: max.abs.err = 2.27e-13 on row 24
        max.rel.err = 2.35e-16 on row 24
        High quality

End of output
